Route #1: 7 10 18 19 20 11 3 4 12 21 28 13 22 29 40 39 43 33 32 38 47 55 66 80 85 91 94 95 96 97 92 98 89 81 88 87 86 74 75 76 61 60 48 56 49 50 57 67 62 68 77 78 69 70 65 58 64 63 51 44 34 30 31 35 23 16 15 14 5 6 1 8 9 2 17 25 24 41 52 59 53 45 42 36 26 27 37 46 54 73 84 72 71 79 82 99 93 83 90 100
Cost 46935
